; Options: -in -smt2
(set-option :produce-unsat-assumptions true)

(declare-fun start!2327 () Bool)

(assert start!2327)

(declare-datatypes ((Unit!1382 0))(
  ( (Unit!1383) )
))
(declare-datatypes ((array!921 0))(
  ( (array!922 (arr!405 (Array (_ BitVec 32) (_ BitVec 32))) (size!405 (_ BitVec 32))) )
))
(declare-datatypes ((tuple4!292 0))(
  ( (tuple4!293 (_1!327 Unit!1382) (_2!327 array!921) (_3!264 (_ BitVec 32)) (_4!146 (_ FloatingPoint 11 53))) )
))
(declare-fun lt!6519 () tuple4!292)

(declare-fun lt!6524 () (_ BitVec 32))

(declare-fun lt!6517 () (_ BitVec 32))

(declare-fun b!12141 () Bool)

(declare-datatypes ((array!923 0))(
  ( (array!924 (arr!406 (Array (_ BitVec 32) (_ FloatingPoint 11 53))) (size!406 (_ BitVec 32))) )
))
(declare-fun q!93 () array!923)

(declare-fun jz!59 () (_ BitVec 32))

(declare-datatypes ((tuple4!294 0))(
  ( (tuple4!295 (_1!328 Unit!1382) (_2!328 (_ BitVec 32)) (_3!265 array!921) (_4!147 (_ BitVec 32))) )
))
(declare-fun e!7043 () tuple4!294)

(declare-fun computeModuloWhile!3 ((_ BitVec 32) array!923 (_ BitVec 32) array!921 (_ BitVec 32)) tuple4!294)

(assert (=> b!12141 (= e!7043 (computeModuloWhile!3 jz!59 q!93 lt!6517 (_2!327 lt!6519) lt!6524))))

(declare-fun b!12142 () Bool)

(declare-fun res!9432 () Bool)

(declare-fun e!7044 () Bool)

(assert (=> b!12142 (=> (not res!9432) (not e!7044))))

(declare-fun qInv!0 (array!923) Bool)

(assert (=> b!12142 (= res!9432 (qInv!0 q!93))))

(declare-fun b!12143 () Bool)

(declare-fun res!9436 () Bool)

(declare-fun e!7041 () Bool)

(assert (=> b!12143 (=> (not res!9436) (not e!7041))))

(declare-fun qq!48 () array!923)

(declare-fun qqInv!0 (array!923) Bool)

(assert (=> b!12143 (= res!9436 (qqInv!0 qq!48))))

(declare-fun b!12144 () Bool)

(declare-datatypes ((tuple3!236 0))(
  ( (tuple3!237 (_1!329 Unit!1382) (_2!329 array!921) (_3!266 (_ BitVec 32))) )
))
(declare-fun e!7038 () tuple3!236)

(declare-fun Unit!1384 () Unit!1382)

(assert (=> b!12144 (= e!7038 (tuple3!237 Unit!1384 (_2!327 lt!6519) lt!6524))))

(declare-fun res!9434 () Bool)

(assert (=> start!2327 (=> (not res!9434) (not e!7044))))

(assert (=> start!2327 (= res!9434 (and (bvsle #b00000000000000000000000000000010 jz!59) (bvslt jz!59 #b00000000000000000000000000010011)))))

(assert (=> start!2327 e!7044))

(assert (=> start!2327 true))

(declare-fun iq!194 () array!921)

(declare-fun array_inv!354 (array!921) Bool)

(assert (=> start!2327 (array_inv!354 iq!194)))

(declare-fun array_inv!355 (array!923) Bool)

(assert (=> start!2327 (array_inv!355 qq!48)))

(assert (=> start!2327 (array_inv!355 q!93)))

(declare-fun b!12145 () Bool)

(declare-fun res!9433 () Bool)

(assert (=> b!12145 (=> (not res!9433) (not e!7041))))

(assert (=> b!12145 (= res!9433 (and (bvsle (select (arr!405 iq!194) (bvsub jz!59 #b00000000000000000000000000000001)) #b00000000011111111111111111111111) (= (size!406 qq!48) #b00000000000000000000000000010100)))))

(declare-fun b!12146 () Bool)

(declare-fun i!271 () (_ BitVec 32))

(assert (=> b!12146 (= e!7041 (or (bvslt i!271 #b00000000000000000000000000000000) (bvsge i!271 (size!406 qq!48))))))

(declare-fun b!12147 () Bool)

(declare-fun e!7039 () Bool)

(assert (=> b!12147 (= e!7039 e!7041)))

(declare-fun res!9437 () Bool)

(assert (=> b!12147 (=> (not res!9437) (not e!7041))))

(declare-fun lt!6521 () tuple3!236)

(declare-fun lt!6522 () Bool)

(assert (=> b!12147 (= res!9437 (and (bvsle #b00000000000000000000000000000000 (select (arr!405 (_2!329 lt!6521)) (bvsub jz!59 #b00000000000000000000000000000001))) (bvsle (select (arr!405 (_2!329 lt!6521)) (bvsub jz!59 #b00000000000000000000000000000001)) #b00000000100000000000000000000000) (or (not lt!6522) (not (= (_3!266 lt!6521) #b00000000000000000000000000000000)) (not (= (select (arr!405 (_2!329 lt!6521)) (bvsub jz!59 #b00000000000000000000000000000001)) #b00000000100000000000000000000000))) (bvsle (select (arr!405 (_2!329 lt!6521)) (bvsub jz!59 #b00000000000000000000000000000001)) #b00000000011111111111111111111111) (bvsle #b00000000000000000000000000000000 i!271) (bvsle i!271 jz!59)))))

(assert (=> b!12147 (= lt!6521 e!7038)))

(declare-fun c!1568 () Bool)

(assert (=> b!12147 (= c!1568 lt!6522)))

(assert (=> b!12147 (= lt!6524 #b00000000000000000000000000000000)))

(assert (=> b!12147 (= lt!6522 (bvsge (select (arr!405 (_2!327 lt!6519)) (bvsub jz!59 #b00000000000000000000000000000001)) #b00000000100000000000000000000000))))

(declare-fun b!12148 () Bool)

(declare-fun Unit!1385 () Unit!1382)

(assert (=> b!12148 (= e!7043 (tuple4!295 Unit!1385 lt!6517 (_2!327 lt!6519) lt!6524))))

(declare-fun b!12149 () Bool)

(declare-fun res!9431 () Bool)

(assert (=> b!12149 (=> (not res!9431) (not e!7041))))

(declare-fun QInt!0 ((_ BitVec 32)) Bool)

(assert (=> b!12149 (= res!9431 (QInt!0 (select (arr!405 iq!194) (bvsub (bvsub jz!59 #b00000000000000000000000000000001) i!271))))))

(declare-fun b!12150 () Bool)

(assert (=> b!12150 (= e!7044 e!7039)))

(declare-fun res!9435 () Bool)

(assert (=> b!12150 (=> (not res!9435) (not e!7039))))

(declare-fun lt!6525 () (_ FloatingPoint 11 53))

(assert (=> b!12150 (= res!9435 (and (fp.leq (fp #b0 #b00000000000 #b0000000000000000000000000000000000000000000000000000) lt!6525) (fp.lt lt!6525 (fp #b0 #b10000000010 #b0000000000000000000000000000000000000000000000000000))))))

(assert (=> b!12150 (= lt!6525 (fp.sub roundNearestTiesToEven (_4!146 lt!6519) (fp.mul roundNearestTiesToEven (fp #b0 #b10000000010 #b0000000000000000000000000000000000000000000000000000) ((_ to_fp 11 53) roundNearestTiesToEven (ite (fp.isNaN (fp.mul roundNearestTiesToEven (_4!146 lt!6519) (fp #b0 #b01111111100 #b0000000000000000000000000000000000000000000000000000))) #b0000000000000000000000000000000000000000000000000000000000000000 (ite (fp.gt (fp.mul roundNearestTiesToEven (_4!146 lt!6519) (fp #b0 #b01111111100 #b0000000000000000000000000000000000000000000000000000)) ((_ to_fp 11 53) roundTowardZero #b0111111111111111111111111111111111111111111111111111111111111111)) #b0111111111111111111111111111111111111111111111111111111111111111 (ite (fp.lt (fp.mul roundNearestTiesToEven (_4!146 lt!6519) (fp #b0 #b01111111100 #b0000000000000000000000000000000000000000000000000000)) ((_ to_fp 11 53) roundTowardZero #b1000000000000000000000000000000000000000000000000000000000000000)) #b1000000000000000000000000000000000000000000000000000000000000000 ((_ fp.to_sbv 64) roundTowardZero (fp.mul roundNearestTiesToEven (_4!146 lt!6519) (fp #b0 #b01111111100 #b0000000000000000000000000000000000000000000000000000))))))))))))

(declare-fun e!7042 () tuple4!292)

(assert (=> b!12150 (= lt!6519 e!7042)))

(declare-fun c!1567 () Bool)

(assert (=> b!12150 (= c!1567 (bvsgt jz!59 #b00000000000000000000000000000000))))

(declare-fun lt!6518 () (_ FloatingPoint 11 53))

(assert (=> b!12150 (= lt!6518 (select (arr!406 q!93) jz!59))))

(declare-fun lt!6516 () array!921)

(assert (=> b!12150 (= lt!6516 (array!922 ((as const (Array (_ BitVec 32) (_ BitVec 32))) #b00000000000000000000000000000000) #b00000000000000000000000000010100))))

(declare-fun b!12151 () Bool)

(declare-fun res!9439 () Bool)

(assert (=> b!12151 (=> (not res!9439) (not e!7041))))

(declare-fun iqInv!0 (array!921) Bool)

(assert (=> b!12151 (= res!9439 (iqInv!0 iq!194))))

(declare-fun b!12152 () Bool)

(declare-fun computeModuloWhile!0 ((_ BitVec 32) array!923 array!921 (_ BitVec 32) (_ FloatingPoint 11 53)) tuple4!292)

(assert (=> b!12152 (= e!7042 (computeModuloWhile!0 jz!59 q!93 lt!6516 jz!59 lt!6518))))

(declare-fun b!12153 () Bool)

(declare-fun Unit!1386 () Unit!1382)

(assert (=> b!12153 (= e!7042 (tuple4!293 Unit!1386 lt!6516 jz!59 lt!6518))))

(declare-fun b!12154 () Bool)

(declare-fun res!9438 () Bool)

(assert (=> b!12154 (=> (not res!9438) (not e!7041))))

(assert (=> b!12154 (= res!9438 (bvslt i!271 jz!59))))

(declare-fun lt!6520 () (_ BitVec 32))

(declare-fun b!12155 () Bool)

(declare-fun lt!6523 () tuple4!294)

(declare-fun Unit!1387 () Unit!1382)

(assert (=> b!12155 (= e!7038 (tuple3!237 Unit!1387 (array!922 (store (arr!405 (_3!265 lt!6523)) (bvsub jz!59 #b00000000000000000000000000000001) (ite (= (_4!147 lt!6523) #b00000000000000000000000000000000) (bvsub #b00000001000000000000000000000000 lt!6520) (bvsub #b00000000111111111111111111111111 lt!6520))) (size!405 (_3!265 lt!6523))) (_4!147 lt!6523)))))

(assert (=> b!12155 (= lt!6517 #b00000000000000000000000000000000)))

(declare-fun c!1566 () Bool)

(assert (=> b!12155 (= c!1566 (bvslt lt!6517 (bvsub jz!59 #b00000000000000000000000000000001)))))

(assert (=> b!12155 (= lt!6523 e!7043)))

(assert (=> b!12155 (= lt!6520 (select (arr!405 (_3!265 lt!6523)) (bvsub jz!59 #b00000000000000000000000000000001)))))

(assert (= (and start!2327 res!9434) b!12142))

(assert (= (and b!12142 res!9432) b!12150))

(assert (= (and b!12150 c!1567) b!12152))

(assert (= (and b!12150 (not c!1567)) b!12153))

(assert (= (and b!12150 res!9435) b!12147))

(assert (= (and b!12147 c!1568) b!12155))

(assert (= (and b!12147 (not c!1568)) b!12144))

(assert (= (and b!12155 c!1566) b!12141))

(assert (= (and b!12155 (not c!1566)) b!12148))

(assert (= (and b!12147 res!9437) b!12151))

(assert (= (and b!12151 res!9439) b!12145))

(assert (= (and b!12145 res!9433) b!12143))

(assert (= (and b!12143 res!9436) b!12154))

(assert (= (and b!12154 res!9438) b!12149))

(assert (= (and b!12149 res!9431) b!12146))

(declare-fun m!16649 () Bool)

(assert (=> b!12142 m!16649))

(declare-fun m!16651 () Bool)

(assert (=> b!12150 m!16651))

(declare-fun m!16653 () Bool)

(assert (=> b!12145 m!16653))

(declare-fun m!16655 () Bool)

(assert (=> b!12143 m!16655))

(declare-fun m!16657 () Bool)

(assert (=> b!12149 m!16657))

(assert (=> b!12149 m!16657))

(declare-fun m!16659 () Bool)

(assert (=> b!12149 m!16659))

(declare-fun m!16661 () Bool)

(assert (=> b!12147 m!16661))

(declare-fun m!16663 () Bool)

(assert (=> b!12147 m!16663))

(declare-fun m!16665 () Bool)

(assert (=> b!12141 m!16665))

(declare-fun m!16667 () Bool)

(assert (=> b!12151 m!16667))

(declare-fun m!16669 () Bool)

(assert (=> start!2327 m!16669))

(declare-fun m!16671 () Bool)

(assert (=> start!2327 m!16671))

(declare-fun m!16673 () Bool)

(assert (=> start!2327 m!16673))

(declare-fun m!16675 () Bool)

(assert (=> b!12155 m!16675))

(declare-fun m!16677 () Bool)

(assert (=> b!12155 m!16677))

(declare-fun m!16679 () Bool)

(assert (=> b!12152 m!16679))

(check-sat (not b!12152) (not start!2327) (not b!12143) (not b!12141) (not b!12149) (not b!12151) (not b!12142))
(check-sat)
